NAME : undefined
TYPE : HCP TOUR
COMMENT : 100-node graph, total time 17.21 seconds
DIMENSION : 100
EDGE_DATA_FORMAT : EDGE_LIST
EDGE_DATA_SECTION
65
46
3
40
70
11
48
27
93
72
28
17
76
75
15
87
95
78
77
29
26
85
52
82
18
98
80
1
58
53
38
67
30
2
34
55
7
16
84
50
39
61
83
86
25
60
41
88
62
19
100
36
97
44
94
23
81
37
96
57
12
22
47
74
43
92
32
79
21
90
13
64
68
49
42
24
89
10
54
69
71
14
59
20
8
51
35
31
5
91
73
63
99
66
45
33
6
9
56
4
-1
EOF
